NAME: ch150
COMMENT: Local search tour for ch150 (7638.692423810045)
TYPE: TOUR
DIMENSION: 150
TOUR_SECTION: 1 87 76 73 48 34 7 84 30 63 10 113 3 62 149 88 94 121 79 59 16 111 105 133 15 78 21 44 71 115 150 125 22 104 4 45 128 68 119 91 106 13 136 112 64 145 74 123 31 27 129 144 147 49 72 80 14 122 77 131 32 23 38 67 43 109 51 12 24 116 101 41 39 57 117 140 60 66 17 130 148 11 61 36 69 127 118 53 40 139 47 120 42 9 28 6 37 2 19 99 114 102 108 70 135 86 29 81 110 20 25 141 58 55 50 137 132 65 85 142 18 75 26 146 56 83 90 46 138 134 54 92 33 126 52 93 35 96 89 8 124 97 143 100 5 107 95 82 103 98 -1
EOF